NAME : portgen-25-14
COMMENT : portgen N=25, seed=14
TYPE : TSP
DIMENSION : 25
EDGE_WEIGHT_TYPE : EUC_2D
NODE_COORD_SECTION
1 186781 473452
2 436866 143196
3 599907 418224
4 270718 876441
5 977793 123530
6 729225 963689
7 958147 947490
8 137801 936362
9 246180 847637
10 540691 994509
11 875463 416929
12 716691 389823
13 142746 10758
14 886248 952129
15 224797 773021
16 678586 408600
17 858364 889879
18 449399 785841
19 775176 28863
20 66019 146391
21 429482 433989
22 379756 99512
23 755718 319701
24 100488 76503
25 87902 27189
